
Log started (V11.0.0) Sun Apr 13 13:18:49 2008

Tried aggregator 1 time.
Reduced MIP has 210 rows, 2001 columns, and 4010 nonzeros.
Presolve time =    0.01 sec.
Clique table members: 200.
MIP emphasis: balance optimality and feasibility.
MIP search method: dynamic search.
Parallel mode: none, using 1 thread.
Root relaxation solution time =    0.05 sec.

        Nodes                                         Cuts/
   Node  Left     Objective  IInf  Best Integer     Best Node    ItCnt     Gap

*     0+    0                         9845.0000      194.9124      382   98.02%
*     0+    0                          208.0000      194.9124      382    6.29%
      0     0      195.2086    25      208.0000      Fract: 9      391    6.15%
*     0+    0                          207.0000      195.2086      391    5.70%
      0     0      195.2581    28      207.0000       Cuts: 2      403    5.67%
*     0+    0                          206.0000      195.2581      403    5.21%
      0     0      195.2621    30      206.0000     Covers: 1      404    5.21%
*     0+    0                          204.0000      195.2621      404    4.28%
      0     0      195.2902    32      204.0000     Covers: 1      407    4.27%
      0     0      195.3311    32      204.0000       Cuts: 3      417    4.25%
      0     0      195.3376    34      204.0000     Covers: 1      418    4.25%
*     0+    0                          203.0000      195.3376      418    3.77%
*     0+    0                          201.0000      195.3376      418    2.82%
*     0+    0                          199.0000      195.3376      418    1.84%

Repeating presolve.
Tried aggregator 1 time.
MIP Presolve eliminated 7 rows and 1237 columns.
Aggregator did 25 substitutions.
Reduced MIP has 178 rows, 739 columns, and 1486 nonzeros.
Tried aggregator 1 time.
Represolve time =    0.03 sec.
Clique table members: 168.
MIP emphasis: balance optimality and feasibility.
MIP search method: dynamic search.
Parallel mode: none, using 1 thread.
Root relaxation solution time =    0.02 sec.

        Nodes                                         Cuts/
   Node  Left     Objective  IInf  Best Integer     Best Node    ItCnt     Gap

      0     0      196.0000    28      199.0000      196.0000      148    1.51%
      0     2      196.0000    28      199.0000      196.0000      148    1.51%
    100    66      198.0000    13      199.0000      196.0000     2751    1.51%
    200   120      198.0000    27      199.0000      196.0000     5836    1.51%
    300   192      198.0000    16      199.0000      196.0000    10798    1.51%
    400   254      198.0000    18      199.0000      196.0000    14417    1.51%
    500   312      197.0000    22      199.0000      196.0000    19885    1.51%
    600   296      197.0000    23      199.0000      196.0000    23383    1.51%
    700   316      198.0000    41      199.0000      196.0000    25846    1.51%
    800   324      197.0000    25      199.0000      196.0000    28627    1.51%
    900   339      198.0000    24      199.0000      196.0000    30957    1.51%
   1000   401      197.0000    43      199.0000      196.0000    34028    1.51%
Elapsed time =   7.76 sec. (tree size =  0.17 MB, solutions = 8)
   1100   488      198.0000    29      199.0000      196.0000    37293    1.51%
   1200   576      197.0000    30      199.0000      196.0000    41136    1.51%
   1300   654    infeasible            199.0000      196.0000    44472    1.51%
   1400   722      197.0000    43      199.0000      196.0000    48458    1.51%
   1500   779      197.0000    39      199.0000      196.0000    52935    1.51%
   1600   867      198.0000    23      199.0000      196.0000    56673    1.51%
   1700   950      197.0000    49      199.0000      196.0000    59447    1.51%
*  1714+    5                          197.0000      196.0000    59510    0.51%

Cover cuts applied:  233
Mixed integer rounding cuts applied:  22
Zero-half cuts applied:  1
Gomory fractional cuts applied:  9

Solution pool: 9 solutions saved.

MIP - Integer optimal solution:  Objective = 1.9700000000e+002
Solution time =   11.73 sec.  Iterations = 60768  Nodes = 1719


Incumbent solution
Variable Name           Solution Value
Cmax                        197.000000
X_1_4                         1.000000
X_2_5                         1.000000
X_3_9                         1.000000
X_4_3                         1.000000
X_5_2                         1.000000
X_6_9                         1.000000
X_7_3                         1.000000
X_8_4                         1.000000
X_9_2                         1.000000
X_10_2                        1.000000
X_11_4                        1.000000
X_12_3                        1.000000
X_13_9                        1.000000
X_14_9                        1.000000
X_15_2                        1.000000
X_16_4                        1.000000
X_17_9                        1.000000
X_18_10                       1.000000
X_19_1                        1.000000
X_20_8                        1.000000
X_21_1                        1.000000
X_22_5                        1.000000
X_23_2                        1.000000
X_24_7                        1.000000
X_25_10                       1.000000
X_26_9                        1.000000
X_27_8                        1.000000
X_28_5                        1.000000
X_29_6                        1.000000
X_30_1                        1.000000
X_31_4                        1.000000
X_32_5                        1.000000
X_33_6                        1.000000
X_34_1                        1.000000
X_35_7                        1.000000
X_36_9                        1.000000
X_37_10                       1.000000
X_38_2                        1.000000
X_39_7                        1.000000
X_40_7                        1.000000
X_41_4                        1.000000
X_42_2                        1.000000
X_43_8                        1.000000
X_44_5                        1.000000
X_45_10                       1.000000
X_46_5                        1.000000
X_47_1                        1.000000
X_48_6                        1.000000
X_49_10                       1.000000
X_50_7                        1.000000
X_51_9                        1.000000
X_52_10                       1.000000
X_53_6                        1.000000
X_54_3                        1.000000
X_55_4                        1.000000
X_56_8                        1.000000
X_57_7                        1.000000
X_58_8                        1.000000
X_59_4                        1.000000
X_60_8                        1.000000
X_61_10                       1.000000
X_62_10                       1.000000
X_63_5                        1.000000
X_64_2                        1.000000
X_65_1                        1.000000
X_66_9                        1.000000
X_67_9                        1.000000
X_68_2                        1.000000
X_69_5                        1.000000
X_70_10                       1.000000
X_71_7                        1.000000
X_72_8                        1.000000
X_73_10                       1.000000
X_74_4                        1.000000
X_75_3                        1.000000
X_76_1                        1.000000
X_77_10                       1.000000
X_78_3                        1.000000
X_79_3                        1.000000
X_80_6                        1.000000
X_81_6                        1.000000
X_82_3                        1.000000
X_83_3                        1.000000
X_84_4                        1.000000
X_85_5                        1.000000
X_86_4                        1.000000
X_87_10                       1.000000
X_88_1                        1.000000
X_89_10                       1.000000
X_90_5                        1.000000
X_91_7                        1.000000
X_92_1                        1.000000
X_93_10                       1.000000
X_94_5                        1.000000
X_95_2                        1.000000
X_96_2                        1.000000
X_97_6                        1.000000
X_98_7                        1.000000
X_99_1                        1.000000
X_100_2                       1.000000
X_101_9                       1.000000
X_102_3                       1.000000
X_103_1                       1.000000
X_104_2                       1.000000
X_105_3                       1.000000
X_106_7                       1.000000
X_107_6                       1.000000
X_108_8                       1.000000
X_109_10                      1.000000
X_110_4                       1.000000
X_111_2                       1.000000
X_112_4                       1.000000
X_113_1                       1.000000
X_114_5                       1.000000
X_115_7                       1.000000
X_116_1                       1.000000
X_117_5                       1.000000
X_118_4                       1.000000
X_119_1                       1.000000
X_120_4                       1.000000
X_121_4                       1.000000
X_122_2                       1.000000
X_123_8                       1.000000
X_124_1                       1.000000
X_125_3                       1.000000
X_126_5                       1.000000
X_127_2                       1.000000
X_128_7                       1.000000
X_129_3                       1.000000
X_130_10                      1.000000
X_131_8                       1.000000
X_132_5                       1.000000
X_133_5                       1.000000
X_134_6                       1.000000
X_135_7                       1.000000
X_136_2                       1.000000
X_137_5                       1.000000
X_138_7                       1.000000
X_139_1                       1.000000
X_140_6                       1.000000
X_141_4                       1.000000
X_142_5                       1.000000
X_143_7                       1.000000
X_144_2                       1.000000
X_145_4                       1.000000
X_146_1                       1.000000
X_147_1                       1.000000
X_148_3                       1.000000
X_149_10                      1.000000
X_150_4                       1.000000
X_151_8                       1.000000
X_152_6                       1.000000
X_153_6                       1.000000
X_154_1                       1.000000
X_155_9                       1.000000
X_156_8                       1.000000
X_157_9                       1.000000
X_158_6                       1.000000
X_159_3                       1.000000
X_160_6                       1.000000
X_161_7                       1.000000
X_162_10                      1.000000
X_163_6                       1.000000
X_164_3                       1.000000
X_165_3                       1.000000
X_166_8                       1.000000
X_167_1                       1.000000
X_168_1                       1.000000
X_169_7                       1.000000
X_170_8                       1.000000
X_171_3                       1.000000
X_172_8                       1.000000
X_173_5                       1.000000
X_174_1                       1.000000
X_175_2                       1.000000
X_176_10                      1.000000
X_177_6                       1.000000
X_178_1                       1.000000
X_179_10                      1.000000
X_180_7                       1.000000
X_181_10                      1.000000
X_182_7                       1.000000
X_183_1                       1.000000
X_184_7                       1.000000
X_185_6                       1.000000
X_186_7                       1.000000
X_187_1                       1.000000
X_188_9                       1.000000
X_189_1                       1.000000
X_190_9                       1.000000
X_191_5                       1.000000
X_192_3                       1.000000
X_193_3                       1.000000
X_194_4                       1.000000
X_195_9                       1.000000
X_196_10                      1.000000
X_197_5                       1.000000
X_198_8                       1.000000
X_199_10                      1.000000
X_200_9                       1.000000
All other variables in the range 1-2001 are 0.
